NAME : XML100_3132_16
DIMENSION : 101
NB_CLUSTERS : 29
CLUSTERING_ALG : DBSCAN
CLUSTERING_PARAMS : eps(64), minSamples(3)
CLUSTERS
1 0
2 7 8 33 47 60 61 69 73 96
3 9 14 74 90
4 18 51 62 98
5 3 6 16 24 25 35 72 79 94
6 40 48 67 78 93
7 36 42 68 70 75
8 49 52 54 64 88
9 11 45 56 81 91
10 41 58 77
11 46 59 80 95
12 29 83 99
13 23 26 27 38 97
14 1 2 22 84
15 12 17 37
16 34 53
17 65 66
18 13 19
19 50 82
20 5 28 39
21 57 92
22 32 76 89
23 15 71
24 10 31 55
25 30 100
26 20 85
27 43 86
28 4 44 63
29 21 87
EOF